proyfinal/src/viki/013/experimentInOfficeAgust.take6.output/1ecc026f-266f-4481-90e1-77d874b8510c.als.dat
{'cnf.clauses': '118081',
 'cnf.totvars': '69608',
 'conflict literals': '97',
 'conflicts': '30',
 'decisions': '5576',
 'memused.mb': '16.87',
 'outcome': 'UNSAT',
 'propagations': '23774',
 'restarts': '1',
 'solver.msecs': 28,
 'task.msecs': 75}
