proyfinal/src/viki/013/experimentInOfficeAgust.take6.output/1ecc026f-266f-4481-90e1-77d874b8510c.als.out
Reading from standard input... Use '--help' for help.
============================[ Problem Statistics ]=============================
|                                                                             |
|  Number of variables:         69608                                         |
|  Number of clauses:          118081                                         |
|  Parse time:                   0.02 s                                       |
|                                                                             |
============================[ Search Statistics ]==============================
| Conflicts |          ORIGINAL         |          LEARNT          | Progress |
|           |    Vars  Clauses Literals |    Limit  Clauses Lit/Cl |          |
===============================================================================
===============================================================================
restarts              : 1
conflicts             : 30             (1063 /sec)
decisions             : 5576           (0.00 % random) (197527 /sec)
propagations          : 23774          (842184 /sec)
conflict literals     : 97             (0.00 % deleted)
Memory used           : 16.87 MB
CPU time              : 0.028229 s

UNSATISFIABLE
